! B3LYP D3 def2-TZVP def2/J RIJCOSX opt noautostart miniprint nopop
%maxcore 2500
%pal nprocs  20 end
%qmmm
 QMAtoms {122:137 238:242 250:254} end
 ActiveAtoms {250:254} end
 ORCAFFFilename "fs.ORCAFF.prms"
end
* xyz   0   1
C      0.29500000    3.06300000   -3.52400000
C     -0.17400000    1.89300000   -2.62900000
C     -1.54600000    2.20700000   -1.99800000
C     -1.56900000    3.67600000   -1.54700000
C     -1.33700000    4.59300000   -2.77700000
O     -0.80300000    3.89600000   -3.91000000
C     -0.53300000    3.93400000   -0.43100000
C     -0.43800000    2.74300000    0.56900000
C     -1.70800000    1.91000000    0.55100000
C     -1.89600000    1.25300000   -0.82800000
O     -0.21500000    3.16400000    1.92600000
C      0.71600000    4.24900000    2.03200000
C      0.02000000    5.52800000    1.54700000
C     -0.87000000    5.23100000    0.30700000
C      0.97700000    6.68800000    1.40900000
C      2.40000000    6.44300000    1.14600000
C      2.93900000    5.15800000    1.19400000
C      2.04900000    3.93900000    1.34300000
C      4.34500000    4.96500000    1.07600000
C      5.20200000    6.09900000    0.94400000
C      4.60800000    7.38100000    0.84700000
C      3.24400000    7.57300000    0.92100000
C      2.61900000    8.93000000    0.71300000
C      1.41800000    9.14700000    1.63500000
C      0.53100000    7.94000000    1.66100000
O      5.38900000    8.50000000    0.65100000
C      6.76200000    8.40300000    0.69500000
C      7.42600000    7.16900000    0.78500000
C      6.62100000    5.96600000    0.88200000
C      2.81900000    2.81200000    1.97400000
C      4.03300000    2.44600000    1.15900000
C      4.94700000    3.66800000    1.10300000
C      4.70700000    1.17000000    1.60100000
C      4.44400000    0.62500000    2.81000000
C      3.39300000    1.15200000    3.73600000
C      2.53100000    2.22000000    3.13600000
C      5.15600000   -0.63700000    3.22200000
C      6.56900000   -0.67100000    2.64100000
C      6.54200000   -0.38700000    1.16000000
C      5.62900000    0.48800000    0.67300000
C      5.51900000    0.78000000   -0.80500000
C      6.27800000   -0.22900000   -1.67000000
C      7.68100000   -0.43800000   -1.08800000
C      7.57500000   -1.06000000    0.30500000
C      7.15800000    4.68100000    0.94800000
C      6.32100000    3.54800000    1.05400000
C      8.84100000    7.19900000    0.78800000
C      9.60900000    5.97800000    0.83500000
S      8.87800000    4.37500000    0.89500000
C     10.98000000    6.00700000    0.82500000
C     11.69600000    7.23300000    0.78800000
C     10.97600000    8.46700000    0.74600000
C      9.55300000    8.45000000    0.73600000
C     11.69600000    9.68900000    0.69200000
C     13.12500000    9.68000000    0.69700000
C     13.82900000    8.42500000    0.79100000
C     13.08700000    7.23300000    0.79500000
C     15.25200000    8.44500000    0.89200000
C     15.92800000    9.64200000    0.74100000
C     15.28100000   10.89800000    0.54300000
C     13.85800000   10.90000000    0.59200000
C      8.82800000    9.68800000    0.67500000
C      7.42300000    9.61000000    0.64400000
C     10.97600000   10.92900000    0.63600000
C      9.55100000   10.94300000    0.64400000
C     13.13800000   12.13900000    0.52500000
C     11.71900000   12.14600000    0.56900000
C     15.99700000   12.13400000    0.33400000
C     15.26400000   13.35800000    0.32700000
C     13.84900000   13.36400000    0.43000000
O     17.29700000    9.59800000    0.88900000
C     17.99200000    8.61200000    0.07500000
C     17.25800000    7.24900000    0.07800000
C     16.20400000    7.29200000    1.19300000
C     18.24500000    6.08100000    0.19300000
C     19.45500000    6.36400000   -0.70300000
C     20.29800000    7.49500000   -0.10600000
C     19.41500000    8.56000000    0.62700000
C     20.08300000    9.94300000    0.54300000
C     21.60300000    9.83600000    0.65800000
C     22.16500000    8.99700000   -0.52300000
N     21.18800000    8.07100000   -1.11600000
C      8.90100000   12.22700000    0.62900000
C      9.62700000   13.40700000    0.61600000
C     11.04400000   13.40300000    0.54900000
O      9.03800000   14.64900000    0.65300000
C      7.64100000   14.65400000    1.02300000
C      6.95900000   13.54700000    0.23800000
O      7.52500000   12.28500000    0.64300000
C      7.06900000   13.74900000   -1.28800000
C      7.23000000   15.23200000   -1.68500000
C      6.47100000   16.13600000   -0.70700000
C      7.07000000   16.03900000    0.71100000
C     13.14900000   14.61500000    0.41000000
C     11.75700000   14.60900000    0.48000000
C     15.96800000   14.58800000    0.20100000
C     15.23900000   15.81800000    0.21300000
C     13.87700000   15.84100000    0.31300000
C     17.36300000   14.61400000    0.05300000
C     18.07000000   13.40600000   -0.01800000
C     17.38700000   12.21000000    0.11800000
O     15.90400000   17.02800000    0.10900000
C     17.27700000   17.07000000    0.04000000
C     18.03500000   15.88900000   -0.01500000
C     19.55300000   13.37400000   -0.28200000
C     20.27600000   14.71500000   -0.00500000
C     19.42900000   15.95700000   -0.08600000
C     21.50000000   14.90200000   -0.92200000
C     22.24200000   13.57900000   -1.07000000
C     21.36100000   12.57600000   -1.85600000
C     19.85800000   12.88000000   -1.70700000
C     20.07700000   17.20100000   -0.11300000
C     19.31100000   18.39600000    0.00500000
C     17.88400000   18.33900000    0.06300000
C     22.27600000   16.10800000   -0.46800000
C     21.51200000   17.27300000   -0.17900000
C      6.27100000    0.16800000   -3.16000000
C      7.19700000    1.35200000   -3.46400000
C      6.62300000   -1.02900000   -4.05000000
O     15.65600000    5.98000000    1.33600000
C     17.14000000   19.55900000    0.17000000
C     17.78200000   20.76400000    0.24800000
C     19.21300000   20.85500000    0.24300000
C     19.97600000   19.64900000    0.11500000
C     21.39500000   19.70700000    0.13200000
C     22.05300000   20.95000000    0.27800000
C     21.28300000   22.15100000    0.40100000
C     19.88100000   22.07600000    0.37800000
C     21.96600000   23.39800000    0.55000000
C     23.33500000   23.45000000    0.57900000
C     24.12300000   22.26600000    0.45300000
C     23.47800000   21.01000000    0.29700000
C     24.25500000   19.82000000    0.15400000
C     23.58900000   18.57200000   -0.00500000
C     22.16600000   18.51100000   -0.01000000
C     25.68000000   19.88200000    0.15500000
C     26.29000000   21.15400000    0.33800000
C     25.53500000   22.30000000    0.48300000
C     23.65100000   16.16500000   -0.41800000
C     24.34400000   17.37500000   -0.14600000
C     26.43700000   18.65500000    0.01500000
C     25.77000000   17.42400000   -0.06700000
C     26.52500000   16.11400000   -0.07100000
C     27.89100000   16.23600000    0.59400000
C     28.66600000   17.34100000   -0.10200000
C     27.92300000   18.67100000   -0.14200000
O     28.57900000   19.69100000   -0.36200000
H      0.74700000    2.70600000   -4.45900000
H      1.04900000    3.67900000   -2.99300000
H     -0.25300000    0.96200000   -3.20900000
H      0.56900000    1.71400000   -1.83500000
H     -2.29800000    2.09400000   -2.79300000
H     -2.56700000    3.89900000   -1.13500000
H     -0.64800000    5.41800000   -2.50200000
H     -2.28000000    5.03300000   -3.13000000
H      0.44400000    4.06300000   -0.92400000
H      0.40600000    2.09100000    0.27100000
H     -2.56000000    2.56900000    0.78400000
H     -1.66000000    1.15000000    1.34400000
H     -2.93600000    0.90400000   -0.92100000
H     -1.25800000    0.35600000   -0.89300000
H      0.91700000    4.35600000    3.10800000
H     -0.67800000    5.80200000    2.35200000
H     -0.83500000    6.07900000   -0.39300000
H     -1.91400000    5.14800000    0.65000000
H      1.83800000    3.61200000    0.31000000
H      3.36500000    9.72500000    0.83900000
H      2.26900000    8.98100000   -0.33500000
H      0.85300000   10.03900000    1.31600000
H      1.76600000    9.36000000    2.66400000
H     -0.51100000    8.07300000    1.96500000
H      3.67900000    2.31000000    0.11500000
H      3.86300000    1.52700000    4.66900000
H      2.76600000    0.30400000    4.07600000
H      1.63600000    2.50300000    3.69100000
H      5.18100000   -0.71600000    4.32100000
H      4.58000000   -1.51000000    2.85500000
H      7.05000000   -1.64400000    2.83100000
H      7.19300000    0.09400000    3.14500000
H      4.45600000    0.76900000   -1.10300000
H      5.87600000    1.80500000   -1.01100000
H      5.74300000   -1.19300000   -1.58600000
H      8.18800000    0.53800000   -1.01300000
H      8.29200000   -1.07400000   -1.74700000
H      8.54900000   -1.02100000    0.82600000
H      7.33500000   -2.13800000    0.22000000
H      6.77200000    2.55500000    1.09700000
H     11.55300000    5.07700000    0.85400000
H     13.60100000    6.27700000    0.76500000
H      6.81900000   10.50300000    0.58600000
H     18.02400000    9.01500000   -0.95500000
H     16.71300000    7.14100000   -0.87400000
H     16.73900000    7.55600000    2.12900000
H     18.57100000    5.96300000    1.24000000
H     17.73800000    5.14900000   -0.08700000
H     19.10300000    6.66800000   -1.70500000
H     20.08600000    5.47600000   -0.84800000
H     20.96000000    7.05400000    0.65900000
H     19.33600000    8.26800000    1.68800000
H     19.83500000   10.39700000   -0.43200000
H     19.66600000   10.60900000    1.31000000
H     21.86000000    9.36000000    1.61700000
H     22.06300000   10.83700000    0.66600000
H     23.03500000    8.41000000   -0.18000000
H     22.52300000    9.65600000   -1.32800000
H     20.62800000    8.55900000   -1.81600000
H      7.57700000   14.42600000    2.10000000
H      5.90800000   13.48200000    0.55300000
H      7.92800000   13.16600000   -1.64900000
H      6.17000000   13.32100000   -1.75600000
H      6.86900000   15.38100000   -2.71300000
H      8.29600000   15.50200000   -1.66800000
H      5.41200000   15.82600000   -0.68700000
H      6.48400000   17.18300000   -1.04400000
H      6.31000000   16.28700000    1.46700000
H      7.89200000   16.76000000    0.83400000
H     11.21400000   15.55200000    0.47600000
H     13.34000000   16.79100000    0.31000000
H     17.95600000   11.29500000    0.07400000
H     19.99000000   12.62400000    0.39600000
H     20.66400000   14.67600000    1.03200000
H     21.10700000   15.17500000   -1.92200000
H     22.46900000   13.19000000   -0.06200000
H     23.20400000   13.71400000   -1.58500000
H     21.56200000   11.55700000   -1.49600000
H     21.63400000   12.59700000   -2.92300000
H     19.25600000   11.98200000   -1.91800000
H     19.53500000   13.64700000   -2.42800000
H      5.23600000    0.47400000   -3.40100000
H      7.07500000    1.67800000   -4.50800000
H      8.25000000    1.06500000   -3.32300000
H      6.99200000    2.21500000   -2.81200000
H      5.93100000   -1.86900000   -3.87700000
H      7.64500000   -1.38400000   -3.84300000
H      6.57600000   -0.75800000   -5.11600000
H     15.11300000    5.98200000    2.14000000
H     16.05200000   19.50800000    0.19500000
H     17.20700000   21.68800000    0.33300000
H     19.29800000   22.99400000    0.47700000
H     21.37100000   24.30800000    0.64500000
H     23.85100000   24.40400000    0.70000000
H     27.37300000   21.21200000    0.35000000
H     26.03400000   23.26100000    0.62600000
H     24.21700000   15.26400000   -0.63600000
H     25.92600000   15.35100000    0.44600000
H     26.65200000   15.75900000   -1.11200000
H     28.43100000   15.27800000    0.54700000
H     27.75200000   16.48700000    1.65800000
H     28.85100000   17.05800000   -1.15500000
H     29.65100000   17.53600000    0.34700000
C     22.65700000   21.88700000    3.03400000
H     23.01500000   22.80800000    3.49600000
H     23.27900000   21.64900000    2.17000000
H     21.62400000   22.01900000    2.71300000
H     22.71200000   21.07300000    3.75600000
 *
